Problem:    
Rows:       195
Columns:    69 (54 integer, 54 binary)
Non-zeros:  604
Status:     INTEGER OPTIMAL
Objective:  value = 55.944408 (MINimum)

   No.   Row name        Activity     Lower bound   Upper bound
------ ------------    ------------- ------------- -------------
     1 r.5                   55.9444             0               
     2 r.6                   55.9444       -976.36               
     3 r.7                   1055.94             0               
     4 r.8                  -974.157      -977.437               
     5 r.9                   1055.94             0               
     6 r.10                 -978.423      -981.337               
     7 r.11                  55.9444             0               
     8 r.12                 -969.298      -972.212               
     9 r.13                  1055.94             0               
    10 r.14                 -950.975      -982.341               
    11 r.15                  55.9444             0               
    12 r.16                 -937.378      -968.743               
    13 r.17                  1055.94             0               
    14 r.18                 -968.634      -990.211               
    15 r.19                  55.9444             0               
    16 r.20                  31.3658      -982.158               
    17 r.21                  55.9444             0               
    18 r.22                  49.0248      -984.876               
    19 r.23                  1055.94             0               
    20 r.24                 -950.975      -976.818               
    21 r.25                  1055.94             0               
    22 r.26                 -997.086      -997.086               
    23 r.27                  55.9444             0               
    24 r.28                   2.9139      -973.744               
    25 r.29                  55.9444             0               
    26 r.30                  55.9444      -981.958               
    27 r.31                  1055.94             0               
    28 r.32                 -944.056       -993.08               
    29 r.33                        1             1             = 
    30 r.34                        1             1             = 
    31 r.35                        1             1             = 
    32 r.36                        1             1             = 
    33 r.37                        1             1             = 
    34 r.38                        1             1             = 
    35 r.39                        1             1             = 
    36 r.40                     1001             2               
    37 r.41                    -1001         -1001               
    38 r.42                  1965.63      -981.337               
    39 r.43                     1001             2               
    40 r.44                    -1001         -1001               
    41 r.45                  1004.86      -972.212               
    42 r.46                     1001             2               
    43 r.47                    -1001         -1001               
    44 r.48                  1993.08      -982.341               
    45 r.49                     1001             2               
    46 r.50                    -1001         -1001               
    47 r.51                  1036.78      -968.743               
    48 r.52                     1001             2               
    49 r.53                    -1001         -1001               
    50 r.54                  1975.42      -990.211               
    51 r.55                     1001             2               
    52 r.56                    -1001         -1001               
    53 r.57                  2005.52      -982.158               
    54 r.58                     1000             2               
    55 r.59                    -1000         -1001               
    56 r.60                  1993.08      -984.876               
    57 r.61                        2             2               
    58 r.62                       -2         -1001               
    59 r.63                 -976.818      -976.818               
    60 r.64                  53.0305       -976.36               
    61 r.65                 -977.071      -977.437               
    62 r.66                  53.0305       -976.36               
    63 r.67                 -977.071      -977.437               
    64 r.68                     1000             2               
    65 r.69                    -1000         -1001               
    66 r.70                     2000      -981.958               
    67 r.71                        2             2               
    68 r.72                       -2         -1001               
    69 r.73                 -969.898       -993.08               
    70 r.74                     1001             2               
    71 r.75                    -1001         -1001               
    72 r.76                  2034.37         23.64               
    73 r.77                     1001             2               
    74 r.78                    -1001         -1001               
    75 r.79                  2995.14       22.5629               
    76 r.80                        2             2               
    77 r.81                       -2         -1001               
    78 r.82                 -972.552      -982.341               
    79 r.83                     1000             2               
    80 r.84                    -1000         -1001               
    81 r.85                  2031.92      -968.743               
    82 r.86                        2             2               
    83 r.87                       -2         -1001               
    84 r.88                 -990.211      -990.211               
    85 r.89                     1000             2               
    86 r.90                    -1000         -1001               
    87 r.91                  3000.66      -982.158               
    88 r.92                     1001             2               
    89 r.93                    -1001         -1001               
    90 r.94                  2027.45      -984.876               
    91 r.95                     1001             2               
    92 r.96                    -1001         -1001               
    93 r.97                  3018.32      -976.818               
    94 r.98                 -981.337      -981.337               
    95 r.99                 -972.212      -972.212               
    96 r.100                -981.337      -981.337               
    97 r.101                -972.212      -972.212               
    98 r.102                 34.3677      -981.958               
    99 r.103                -965.632       -993.08               
   100 r.104                 1025.24      -981.958               
   101 r.105                 25.2422       -993.08               
   102 r.106                    1001             2               
   103 r.107                   -1001         -1001               
   104 r.108                 2006.92         23.64               
   105 r.109                    1001             2               
   106 r.110                   -1001         -1001               
   107 r.111                 2963.22       22.5629               
   108 r.112                       2             2               
   109 r.113                      -2         -1001               
   110 r.114                 972.552       18.6628               
   111 r.115                    1000             2               
   112 r.116                   -1000         -1001               
   113 r.117                 1968.08       27.7884               
   114 r.118                -982.341      -982.341               
   115 r.119                -968.743      -968.743               
   116 r.120                -982.341      -982.341               
   117 r.121                -968.743      -968.743               
   118 r.122                    1001             2               
   119 r.123                   -1001         -1001               
   120 r.124                    2000      -984.876               
   121 r.125                    1001             2               
   122 r.126                   -1001         -1001               
   123 r.127                  2986.4      -976.818               
   124 r.128                -953.889      -982.341               
   125 r.129                -940.291      -968.743               
   126 r.130                -953.889      -982.341               
   127 r.131                -940.291      -968.743               
   128 r.132                  6.9196      -981.958               
   129 r.133                 -993.08       -993.08               
   130 r.134                 993.322      -981.958               
   131 r.135                  -6.678       -993.08               
   132 r.136                    1001             2               
   133 r.137                   -1001         -1001               
   134 r.138                 2024.58         23.64               
   135 r.139                    1001             2               
   136 r.140                   -1001         -1001               
   137 r.141                 1994.48       22.5629               
   138 r.142                       2             2               
   139 r.143                      -2         -1001               
   140 r.144                 990.211       18.6628               
   141 r.145                    1000             2               
   142 r.146                   -1000         -1001               
   143 r.147                 999.336       27.7884               
   144 r.148                    1001             2               
   145 r.149                   -1001         -1001               
   146 r.150                 2017.66      -984.876               
   147 r.151                    1001             2               
   148 r.152                   -1001         -1001               
   149 r.153                 2017.66      -976.818               
   150 r.154                -971.548      -990.211               
   151 r.155                 28.4519      -982.158               
   152 r.156                -971.548      -990.211               
   153 r.157                 28.4519      -982.158               
   154 r.158                 24.5786      -981.958               
   155 r.159                -975.421       -993.08               
   156 r.160                 24.5786      -981.958               
   157 r.161                -975.421       -993.08               
   158 r.162                    1000             2               
   159 r.163                   -1000         -1001               
   160 r.164                 2006.92         23.64               
   161 r.165                       2             2               
   162 r.166                      -2         -1001               
   163 r.167                 976.818       22.5629               
   164 r.168                    1001             2               
   165 r.169                   -1001         -1001               
   166 r.170                 1972.55       18.6628               
   167 r.171                    1001             2               
   168 r.172                   -1001         -1001               
   169 r.173                 981.677       27.7884               
   170 r.174                    1001             2               
   171 r.175                   -1001         -1001               
   172 r.176                    2000        17.659               
   173 r.177                    1001             2               
   174 r.178                   -1001         -1001               
   175 r.179                  1013.6       31.2566               
   176 r.180                    1001             2               
   177 r.181                   -1001         -1001               
   178 r.182                 1982.34       9.78911               
   179 r.183                    1001             2               
   180 r.184                   -1001         -1001               
   181 r.185                 1982.34       17.8425               
   182 r.186                 46.1109      -984.876               
   183 r.187                -953.889      -976.818               
   184 r.188                 46.1109      -984.876               
   185 r.189                -953.889      -976.818               
   186 r.190                  6.9196      -981.958               
   187 r.191                 -993.08       -993.08               
   188 r.192                  6.9196      -981.958               
   189 r.193                 -993.08       -993.08               
   190 r.194                    1000             2               
   191 r.195                   -1000         -1001               
   192 r.196                    2000         23.64               
   193 r.197                       2             2               
   194 r.198                      -2         -1001               
   195 r.199                 969.898       22.5629               

   No. Column name       Activity     Lower bound   Upper bound
------ ------------    ------------- ------------- -------------
     1 tt                    55.9444             0               
     2 s_1_1        *              0             0             1 
     3 t_1_1                       0             0               
     4 s_2_1        *              1             0             1 
     5 t_2_1                 30.1015             0               
     6 s_1_2        *              1             0             1 
     7 t_1_2                 34.3677             0               
     8 s_2_2        *              0             0             1 
     9 t_2_2                 1025.24             0               
    10 s_1_3        *              1             0             1 
    11 t_1_3                  6.9196             0               
    12 s_2_3        *              0             0             1 
    13 t_2_3                 993.322             0               
    14 s_1_4        *              1             0             1 
    15 t_1_4                 24.5786             0               
    16 s_2_4        *              0             0             1 
    17 t_2_4                 24.5786             0               
    18 s_1_5        *              0             0             1 
    19 t_1_5                  6.9196             0               
    20 s_2_5        *              1             0             1 
    21 t_2_5                  6.9196             0               
    22 s_1_6        *              1             0             1 
    23 t_1_6                 53.0305             0               
    24 s_2_6        *              0             0             1 
    25 t_2_6                 53.0305             0               
    26 s_1_7        *              0             0             1 
    27 t_1_7                       0             0               
    28 s_2_7        *              1             0             1 
    29 t_2_7                       0             0               
    30 r_1_1_2      *              1             0             1 
    31 u_1_1_2      *              0             0             1 
    32 r_2_1_2      *              1             0             1 
    33 u_2_1_2      *              0             0             1 
    34 r_1_1_3      *              1             0             1 
    35 u_1_1_3      *              0             0             1 
    36 r_2_1_3      *              1             0             1 
    37 u_2_1_3      *              0             0             1 
    38 r_1_1_4      *              1             0             1 
    39 u_1_1_4      *              0             0             1 
    40 r_2_1_4      *              1             0             1 
    41 u_2_1_4      *              0             0             1 
    42 r_1_1_5      *              1             0             1 
    43 u_1_1_5      *              0             0             1 
    44 r_2_1_5      *              0             0             1 
    45 u_2_1_5      *              1             0             1 
    46 r_1_1_7      *              1             0             1 
    47 u_1_1_7      *              0             0             1 
    48 r_2_1_7      *              0             0             1 
    49 u_2_1_7      *              1             0             1 
    50 r_1_2_3      *              0             0             1 
    51 u_1_2_3      *              1             0             1 
    52 r_2_2_3      *              1             0             1 
    53 u_2_2_3      *              0             0             1 
    54 r_1_2_4      *              0             0             1 
    55 u_1_2_4      *              1             0             1 
    56 r_2_2_4      *              1             0             1 
    57 u_2_2_4      *              0             0             1 
    58 r_1_2_5      *              1             0             1 
    59 u_1_2_5      *              0             0             1 
    60 r_2_2_5      *              1             0             1 
    61 u_2_2_5      *              0             0             1 
    62 r_1_3_5      *              1             0             1 
    63 u_1_3_5      *              0             0             1 
    64 r_2_3_5      *              1             0             1 
    65 u_2_3_5      *              0             0             1 
    66 r_1_4_5      *              1             0             1 
    67 u_1_4_5      *              0             0             1 
    68 r_2_4_5      *              1             0             1 
    69 u_2_4_5      *              0             0             1 

Integer feasibility conditions:

KKT.PE: max.abs.err = 4.55e-13 on row 107
        max.rel.err = 7.59e-17 on row 107
        High quality

KKT.PB: max.abs.err = 1.14e-13 on row 22
        max.rel.err = 1.17e-16 on row 95
        High quality

End of output
